
n_res = 6;
rcap = [70, 76, 73, 72, 1688, 1842];
rtype = [1, 1, 1, 1, 2, 2];
n_tasks = 100;
modes =  [{1, 2, 3, 4, 5, 6}, {7, 8, 9, 10, 11, 12}, {13, 14, 15, 16, 17, 18}, {19, 20, 21, 22, 23, 24}, {25, 26, 27, 28, 29, 30}, {31, 32, 33, 34, 35, 36}, {37, 38, 39, 40, 41, 42}, {43, 44, 45, 46, 47, 48}, {49, 50, 51, 52, 53, 54}, {55, 56, 57, 58, 59, 60}, {61, 62, 63, 64, 65, 66}, {67, 68, 69, 70, 71, 72}, {73, 74, 75, 76, 77, 78}, {79, 80, 81, 82, 83, 84}, {85, 86, 87, 88, 89, 90}, {91, 92, 93, 94, 95, 96}, {97, 98, 99, 100, 101, 102}, {103, 104, 105, 106, 107, 108}, {109, 110, 111, 112, 113, 114}, {115, 116, 117, 118, 119, 120}, {121, 122, 123, 124, 125, 126}, {127, 128, 129, 130, 131, 132}, {133, 134, 135, 136, 137, 138}, {139, 140, 141, 142, 143, 144}, {145, 146, 147, 148, 149, 150}, {151, 152, 153, 154, 155, 156}, {157, 158, 159, 160, 161, 162}, {163, 164, 165, 166, 167, 168}, {169, 170, 171, 172, 173, 174}, {175, 176, 177, 178, 179, 180}, {181, 182, 183, 184, 185, 186}, {187, 188, 189, 190, 191, 192}, {193, 194, 195, 196, 197, 198}, {199, 200, 201, 202, 203, 204}, {205, 206, 207, 208, 209, 210}, {211, 212, 213, 214, 215, 216}, {217, 218, 219, 220, 221, 222}, {223, 224, 225, 226, 227, 228}, {229, 230, 231, 232, 233, 234}, {235, 236, 237, 238, 239, 240}, {241, 242, 243, 244, 245, 246}, {247, 248, 249, 250, 251, 252}, {253, 254, 255, 256, 257, 258}, {259, 260, 261, 262, 263, 264}, {265, 266, 267, 268, 269, 270}, {271, 272, 273, 274, 275, 276}, {277, 278, 279, 280, 281, 282}, {283, 284, 285, 286, 287, 288}, {289, 290, 291, 292, 293, 294}, {295, 296, 297, 298, 299, 300}, {301, 302, 303, 304, 305, 306}, {307, 308, 309, 310, 311, 312}, {313, 314, 315, 316, 317, 318}, {319, 320, 321, 322, 323, 324}, {325, 326, 327, 328, 329, 330}, {331, 332, 333, 334, 335, 336}, {337, 338, 339, 340, 341, 342}, {343, 344, 345, 346, 347, 348}, {349, 350, 351, 352, 353, 354}, {355, 356, 357, 358, 359, 360}, {361, 362, 363, 364, 365, 366}, {367, 368, 369, 370, 371, 372}, {373, 374, 375, 376, 377, 378}, {379, 380, 381, 382, 383, 384}, {385, 386, 387, 388, 389, 390}, {391, 392, 393, 394, 395, 396}, {397, 398, 399, 400, 401, 402}, {403, 404, 405, 406, 407, 408}, {409, 410, 411, 412, 413, 414}, {415, 416, 417, 418, 419, 420}, {421, 422, 423, 424, 425, 426}, {427, 428, 429, 430, 431, 432}, {433, 434, 435, 436, 437, 438}, {439, 440, 441, 442, 443, 444}, {445, 446, 447, 448, 449, 450}, {451, 452, 453, 454, 455, 456}, {457, 458, 459, 460, 461, 462}, {463, 464, 465, 466, 467, 468}, {469, 470, 471, 472, 473, 474}, {475, 476, 477, 478, 479, 480}, {481, 482, 483, 484, 485, 486}, {487, 488, 489, 490, 491, 492}, {493, 494, 495, 496, 497, 498}, {499, 500, 501, 502, 503, 504}, {505, 506, 507, 508, 509, 510}, {511, 512, 513, 514, 515, 516}, {517, 518, 519, 520, 521, 522}, {523, 524, 525, 526, 527, 528}, {529, 530, 531, 532, 533, 534}, {535, 536, 537, 538, 539, 540}, {541, 542, 543, 544, 545, 546}, {547, 548, 549, 550, 551, 552}, {553, 554, 555, 556, 557, 558}, {559, 560, 561, 562, 563, 564}, {565, 566, 567, 568, 569, 570}, {571, 572, 573, 574, 575, 576}, {577, 578, 579, 580, 581, 582}, {583, 584, 585, 586, 587, 588}, {589, 590, 591, 592, 593, 594}, {595, 596, 597, 598, 599, 600}];
succ =  [{21, 17, 16, 14, 13, 12, 7, 6}, {24, 16, 13, 10, 9, 7}, {31, 24, 17, 13, 9, 7}, {32, 26, 24, 23, 20, 16, 13, 12}, {32, 27, 26, 24, 23, 21, 20, 13}, {33, 32, 31, 27, 24, 23, 22, 19}, {33, 32, 30, 27, 25, 20, 18}, {39, 34, 33, 32, 31, 30, 24, 23, 19}, {32, 30, 26, 23, 22, 19}, {38, 37, 32, 31, 30, 25, 20}, {39, 37, 34, 33, 32, 30, 19}, {39, 37, 34, 33, 30, 19}, {39, 38, 37, 34, 33, 30, 29, 25}, {39, 37, 34, 33, 30, 27, 25}, {38, 37, 33, 32, 31, 22}, {40, 39, 38, 37, 35, 34, 31, 27}, {37, 35, 34, 30, 27, 26, 25}, {40, 39, 35, 34, 29, 23}, {38, 35, 29, 25}, {35, 22}, {47, 44, 40, 38, 37, 28}, {47, 39, 34, 29, 28}, {47, 44, 38, 37, 28}, {47, 38, 29, 28}, {47, 44, 40, 28}, {47, 41, 29}, {29, 28}, {52, 48, 43, 41, 36}, {52, 48, 44, 43, 36}, {48, 47, 43, 41, 36}, {52, 49, 48, 46, 44, 43, 41}, {52, 49, 48, 47, 43, 42}, {43, 35}, {54, 52, 51, 49, 48, 45, 42}, {54, 51, 49, 47, 45, 42}, {54, 51, 49, 45, 42}, {66, 62, 61, 59, 58, 54, 53, 52, 50, 46}, {66, 60, 59, 58, 55, 54, 53, 52, 51, 50}, {66, 54, 53, 46, 45}, {66, 60, 59, 58, 57, 56, 55, 54, 51, 50}, {76, 66, 60, 57, 55, 54, 53, 51, 50}, {66, 62, 61, 58, 53, 46}, {66, 57, 54, 51, 45}, {70, 68, 66, 65, 62, 61, 59, 58, 57, 56, 53}, {68, 62, 61, 59, 56, 50}, {77, 70, 69, 68, 65, 60, 57, 56, 55}, {77, 76, 66, 65, 62, 60, 58, 57}, {68, 66, 65, 62, 60, 57, 53}, {77, 76, 72, 71, 70, 66, 65, 62, 58}, {87, 77, 72, 71, 70, 69, 65, 64, 63}, {72, 71, 68, 65, 64, 62, 61}, {77, 76, 70, 69, 57}, {100, 87, 77, 75, 72, 69, 67, 63}, {100, 87, 77, 74, 71, 67, 65}, {100, 87, 75, 71, 67, 63}, {100, 79, 76, 74, 73, 64}, {75, 71, 67, 63}, {100, 75, 67, 63}, {100, 85, 82, 79, 74, 73, 72, 67}, {87, 85, 82, 75, 74, 72, 67}, {87, 79, 77, 74, 73, 67}, {87, 85, 82, 81, 80, 79, 75, 74, 73}, {89, 88, 85, 82, 81, 79, 78, 74, 73}, {85, 82, 75, 67}, {85, 82, 80, 79, 75, 73}, {98, 87, 84, 69}, {99, 84, 81, 80, 78}, {100, 95, 89, 84, 83, 81, 79}, {99, 95, 89, 88, 85, 79}, {100, 98, 96, 88, 83, 80}, {97, 96, 84, 78}, {99, 97, 96, 95, 93, 92, 91, 88, 84}, {99, 98, 97, 95, 84, 83}, {98, 97, 96, 95, 86, 83}, {99, 96, 95, 88, 86, 83}, {98, 97, 96, 88, 86, 83}, {96, 95, 88, 85, 83}, {98, 95, 94, 90, 83}, {97, 96, 94, 93, 92, 91, 90}, {97, 95, 93, 92, 91, 89}, {98, 96, 94, 93, 92, 90}, {97, 92, 91, 90}, {93, 92, 91}, {86}, {86}, {94, 90}, {91, 90}, {90}, {90}, {}, {}, {}, {}, {}, {}, {}, {}, {}, {}, {}];
n_opt = 600;
dur = [3, 4, 5, 22, 29, 30, 9, 10, 11, 12, 16, 27, 3, 5, 8, 23, 25, 30, 7, 9, 14, 16, 19, 30, 2, 13, 23, 24, 27, 29, 9, 16, 17, 19, 24, 25, 2, 3, 7, 10, 23, 26, 8, 12, 13, 14, 19, 24, 6, 15, 18, 23, 24, 30, 2, 10, 13, 14, 16, 22, 4, 5, 11, 23, 24, 29, 6, 7, 12, 21, 28, 30, 15, 19, 24, 25, 26, 29, 5, 16, 19, 23, 28, 30, 4, 6, 14, 26, 27, 30, 2, 7, 14, 22, 27, 29, 4, 5, 11, 12, 24, 30, 5, 8, 14, 21, 22, 27, 10, 13, 16, 21, 25, 26, 1, 2, 12, 16, 20, 24, 1, 2, 7, 16, 28, 30, 1, 5, 14, 16, 19, 27, 4, 8, 15, 17, 18, 28, 1, 5, 10, 20, 23, 25, 6, 13, 15, 18, 20, 25, 6, 9, 14, 17, 21, 29, 1, 3, 13, 14, 19, 23, 2, 7, 10, 14, 29, 30, 2, 9, 14, 15, 24, 28, 1, 13, 15, 17, 26, 29, 2, 5, 6, 26, 27, 29, 4, 5, 6, 21, 26, 29, 13, 14, 15, 16, 17, 20, 1, 4, 8, 14, 17, 23, 2, 11, 14, 15, 19, 24, 12, 19, 23, 24, 27, 30, 1, 2, 5, 11, 15, 27, 10, 17, 20, 21, 24, 30, 6, 7, 11, 14, 20, 22, 1, 2, 15, 23, 24, 26, 5, 6, 9, 11, 18, 26, 1, 8, 14, 25, 27, 28, 14, 17, 19, 20, 23, 24, 1, 9, 16, 23, 29, 30, 11, 16, 18, 22, 25, 27, 6, 12, 14, 15, 17, 19, 7, 14, 17, 20, 26, 29, 1, 4, 17, 19, 25, 26, 5, 6, 10, 12, 18, 21, 4, 13, 15, 20, 21, 26, 4, 11, 14, 15, 19, 28, 1, 5, 12, 16, 24, 26, 3, 11, 14, 26, 28, 29, 5, 6, 12, 14, 23, 25, 3, 7, 11, 14, 26, 30, 3, 10, 13, 19, 28, 29, 7, 11, 12, 13, 14, 30, 3, 8, 13, 21, 22, 24, 1, 2, 18, 23, 25, 26, 2, 3, 7, 11, 14, 15, 2, 5, 7, 10, 16, 24, 10, 15, 17, 25, 27, 30, 12, 13, 14, 17, 20, 23, 4, 5, 11, 22, 23, 30, 1, 4, 8, 16, 18, 28, 2, 12, 20, 21, 22, 26, 4, 5, 7, 8, 9, 15, 1, 7, 9, 10, 18, 29, 4, 9, 13, 23, 24, 28, 3, 5, 13, 21, 23, 25, 6, 7, 15, 20, 21, 22, 2, 3, 4, 18, 19, 20, 3, 8, 11, 23, 26, 28, 7, 15, 16, 17, 20, 23, 4, 8, 15, 20, 21, 28, 4, 10, 12, 17, 25, 26, 3, 8, 10, 12, 21, 25, 12, 17, 21, 24, 29, 30, 6, 11, 14, 15, 17, 26, 1, 3, 5, 8, 15, 20, 2, 5, 6, 8, 15, 21, 9, 14, 15, 16, 29, 30, 1, 3, 7, 17, 18, 29, 5, 8, 15, 21, 23, 28, 3, 4, 8, 12, 13, 27, 1, 5, 6, 7, 8, 18, 1, 9, 18, 19, 27, 28, 1, 2, 4, 7, 17, 21, 2, 5, 9, 10, 23, 26, 1, 2, 6, 16, 18, 21, 1, 4, 11, 13, 15, 25, 1, 10, 11, 18, 19, 21, 18, 21, 23, 28, 29, 30, 4, 5, 9, 10, 11, 16, 1, 4, 7, 9, 12, 26, 7, 17, 23, 24, 26, 28, 1, 4, 8, 9, 15, 29, 1, 8, 11, 17, 22, 25, 3, 13, 16, 21, 23, 26, 15, 24, 25, 26, 29, 30];
rreq = [|24, 23, 23, 23, 23, 23, 22, 21, 20, 15, 15, 10, 21, 19, 19, 17, 17, 15, 23, 21, 14, 12, 6, 5, 22, 19, 17, 16, 10, 9, 25, 23, 21, 17, 16, 13, 17, 16, 16, 16, 14, 14, 18, 16, 15, 13, 10, 9, 6, 6, 5, 4, 3, 2, 28, 28, 28, 28, 28, 28, 21, 19, 19, 18, 16, 15, 25, 25, 25, 25, 25, 25, 13, 10, 10, 6, 5, 3, 26, 25, 25, 25, 25, 25, 21, 16, 14, 13, 11, 8, 21, 20, 20, 19, 18, 18, 13, 12, 11, 9, 8, 7, 27, 21, 18, 15, 10, 3, 22, 17, 12, 11, 7, 4, 19, 18, 18, 18, 18, 18, 26, 22, 15, 12, 6, 3, 15, 12, 8, 8, 3, 2, 15, 13, 11, 11, 10, 8, 3, 2, 2, 2, 1, 1, 27, 25, 25, 21, 21, 18, 26, 23, 21, 21, 17, 16, 13, 13, 12, 10, 9, 9, 27, 25, 24, 23, 21, 20, 25, 24, 22, 22, 21, 19, 26, 25, 21, 18, 15, 14, 15, 13, 11, 11, 8, 7, 7, 7, 7, 7, 7, 7, 12, 12, 12, 12, 11, 11, 14, 14, 12, 9, 7, 3, 23, 22, 21, 21, 20, 19, 9, 9, 7, 5, 5, 2, 25, 21, 20, 17, 11, 11, 20, 18, 12, 11, 8, 4, 12, 10, 10, 8, 7, 7, 13, 10, 9, 5, 4, 2, 29, 28, 27, 26, 26, 25, 29, 29, 29, 29, 28, 28, 27, 24, 23, 20, 19, 17, 4, 3, 2, 2, 2, 1, 8, 6, 5, 4, 3, 3, 14, 14, 10, 10, 6, 5, 15, 12, 8, 6, 3, 2, 26, 25, 24, 24, 22, 22, 24, 23, 23, 22, 22, 22, 20, 20, 19, 18, 17, 15, 12, 10, 9, 7, 7, 5, 26, 22, 20, 18, 15, 12, 22, 22, 19, 19, 16, 15, 16, 16, 15, 13, 12, 11, 28, 26, 25, 25, 23, 23, 24, 23, 23, 22, 20, 20, 19, 18, 15, 13, 13, 11, 23, 22, 20, 18, 16, 15, 26, 25, 22, 19, 17, 17, 11, 9, 8, 7, 6, 6, 8, 7, 6, 6, 4, 4, 27, 25, 22, 21, 18, 18, 17, 16, 13, 11, 8, 6, 1, 1, 1, 1, 1, 1, 20, 19, 14, 13, 7, 5, 10, 8, 8, 7, 6, 5, 23, 23, 23, 23, 23, 23, 25, 22, 21, 21, 17, 17, 20, 16, 14, 9, 6, 6, 6, 5, 5, 5, 5, 5, 12, 11, 11, 10, 9, 9, 28, 28, 28, 28, 28, 28, 15, 13, 13, 12, 10, 10, 1, 1, 1, 1, 1, 1, 26, 23, 19, 18, 14, 8, 6, 5, 5, 5, 5, 5, 20, 19, 19, 18, 18, 17, 27, 24, 18, 16, 15, 11, 24, 23, 20, 15, 13, 12, 29, 23, 21, 16, 12, 8, 22, 20, 16, 16, 14, 12, 25, 24, 23, 19, 16, 14, 17, 15, 11, 9, 6, 2, 10, 10, 10, 10, 9, 9, 30, 25, 20, 16, 10, 6, 21, 17, 15, 9, 5, 3, 27, 24, 18, 18, 13, 9, 9, 7, 6, 5, 5, 3, 28, 27, 21, 20, 16, 15, 22, 20, 20, 15, 14, 11, 26, 25, 25, 23, 22, 21, 3, 3, 3, 3, 2, 2, 26, 25, 25, 24, 24, 23, 14, 12, 12, 9, 8, 6, 13, 13, 13, 13, 12, 12, 18, 15, 13, 11, 11, 9, 17, 14, 13, 10, 4, 4, 9, 8, 8, 7, 6, 6, 27, 23, 22, 18, 15, 13, 11, 9, 7, 5, 3, 2
 |13, 12, 11, 10, 10, 9, 29, 27, 26, 24, 23, 22, 24, 23, 21, 20, 18, 17, 20, 18, 17, 14, 14, 12, 21, 19, 18, 18, 14, 14, 9, 8, 7, 6, 6, 5, 18, 15, 13, 7, 7, 3, 13, 10, 10, 8, 7, 7, 24, 23, 22, 21, 19, 19, 21, 19, 18, 16, 13, 12, 20, 17, 17, 14, 12, 10, 25, 25, 18, 15, 13, 6, 10, 9, 9, 9, 9, 9, 28, 28, 28, 28, 28, 28, 24, 22, 21, 21, 19, 19, 29, 25, 24, 24, 22, 20, 5, 5, 5, 5, 5, 5, 26, 25, 25, 23, 23, 22, 17, 14, 13, 11, 8, 8, 15, 15, 12, 9, 4, 3, 26, 21, 18, 16, 12, 5, 19, 18, 17, 17, 17, 16, 23, 18, 15, 13, 7, 6, 7, 7, 7, 6, 5, 5, 14, 10, 9, 8, 6, 4, 17, 16, 14, 13, 12, 12, 28, 21, 18, 16, 10, 8, 22, 18, 13, 11, 7, 5, 27, 26, 22, 17, 14, 9, 22, 18, 16, 15, 11, 11, 10, 9, 8, 8, 7, 7, 25, 23, 20, 18, 16, 13, 16, 15, 14, 14, 13, 12, 27, 25, 25, 24, 22, 22, 26, 24, 22, 22, 20, 18, 21, 21, 21, 20, 20, 20, 23, 22, 18, 16, 14, 12, 9, 8, 8, 7, 6, 6, 20, 18, 17, 16, 15, 15, 19, 17, 16, 14, 13, 13, 23, 18, 15, 13, 8, 6, 27, 27, 27, 27, 27, 27, 15, 12, 10, 10, 8, 7, 26, 21, 18, 17, 13, 7, 18, 16, 16, 13, 13, 11, 16, 14, 11, 10, 7, 6, 21, 20, 20, 20, 20, 20, 26, 25, 21, 21, 16, 16, 19, 18, 17, 15, 14, 13, 24, 23, 19, 11, 11, 3, 9, 7, 6, 5, 4, 3, 8, 7, 5, 4, 3, 2, 11, 11, 9, 8, 7, 6, 10, 9, 9, 7, 5, 5, 27, 24, 24, 21, 16, 15, 7, 5, 4, 4, 3, 2, 25, 24, 23, 22, 20, 19, 3, 2, 2, 2, 2, 2, 6, 5, 5, 3, 2, 2, 19, 19, 19, 19, 19, 19, 25, 25, 19, 15, 11, 8, 13, 10, 8, 8, 5, 5, 25, 22, 20, 15, 15, 11, 16, 14, 13, 11, 10, 8, 15, 13, 10, 9, 7, 6, 23, 23, 22, 22, 22, 21, 27, 27, 24, 22, 19, 18, 19, 17, 15, 12, 10, 9, 30, 25, 24, 18, 18, 14, 17, 14, 12, 11, 9, 6, 27, 26, 26, 25, 24, 24, 6, 6, 6, 6, 6, 6, 21, 19, 15, 11, 10, 7, 13, 10, 9, 7, 4, 3, 8, 8, 7, 6, 3, 3, 22, 21, 21, 21, 21, 21, 11, 10, 10, 9, 8, 8, 28, 28, 28, 27, 27, 27, 25, 25, 24, 22, 21, 19, 21, 19, 17, 11, 8, 7, 26, 25, 24, 24, 22, 22, 15, 14, 13, 13, 12, 11, 19, 15, 11, 7, 4, 1, 27, 25, 23, 20, 17, 17, 23, 20, 16, 11, 7, 5, 16, 16, 13, 13, 12, 10, 22, 19, 14, 14, 10, 9, 25, 25, 25, 25, 25, 25, 26, 23, 18, 17, 13, 9, 29, 28, 28, 27, 27, 27, 25, 22, 18, 16, 13, 10, 29, 24, 21, 18, 16, 15, 22, 21, 16, 16, 13, 10, 23, 23, 23, 23, 22, 22, 10, 10, 9, 9, 8, 7, 2, 2, 2, 1, 1, 1, 17, 16, 15, 12, 11, 8, 15, 13, 11, 8, 5, 3, 20, 20, 20, 20, 20, 20, 15, 14, 13, 12, 12, 11
 |7, 7, 5, 5, 4, 3, 13, 11, 11, 10, 9, 8, 8, 8, 7, 7, 7, 6, 22, 18, 17, 16, 13, 10, 16, 13, 11, 8, 5, 2, 17, 15, 12, 10, 6, 6, 26, 23, 16, 12, 8, 5, 11, 10, 10, 10, 10, 10, 26, 25, 24, 22, 21, 20, 22, 20, 20, 17, 16, 13, 19, 17, 16, 14, 13, 12, 28, 27, 25, 23, 19, 19, 19, 17, 17, 17, 15, 15, 4, 4, 4, 4, 4, 4, 8, 5, 5, 3, 2, 2, 29, 28, 28, 27, 26, 26, 26, 24, 23, 21, 21, 18, 25, 24, 23, 22, 22, 21, 23, 23, 23, 23, 23, 23, 15, 13, 13, 12, 11, 10, 13, 10, 7, 6, 4, 3, 24, 24, 24, 24, 24, 24, 26, 26, 26, 25, 25, 25, 27, 22, 20, 16, 9, 5, 11, 10, 9, 8, 7, 7, 9, 8, 8, 7, 7, 7, 10, 9, 9, 9, 7, 7, 25, 23, 23, 22, 21, 20, 24, 20, 17, 11, 9, 4, 7, 6, 5, 4, 3, 2, 8, 8, 8, 8, 8, 8, 16, 16, 14, 14, 12, 11, 9, 8, 8, 6, 6, 5, 21, 18, 15, 14, 11, 9, 3, 3, 2, 2, 2, 1, 29, 25, 24, 21, 19, 17, 17, 17, 17, 16, 16, 15, 16, 13, 11, 8, 6, 5, 20, 19, 13, 12, 7, 7, 30, 25, 21, 18, 15, 9, 18, 16, 13, 12, 10, 7, 16, 16, 15, 14, 13, 12, 26, 21, 19, 12, 9, 6, 27, 27, 26, 25, 23, 23, 27, 26, 24, 23, 22, 22, 12, 11, 11, 11, 11, 11, 17, 16, 13, 12, 7, 5, 23, 22, 18, 12, 9, 8, 16, 15, 15, 15, 15, 15, 23, 21, 19, 17, 16, 15, 19, 19, 19, 19, 19, 19, 26, 24, 22, 19, 17, 14, 30, 28, 26, 25, 25, 23, 13, 12, 10, 10, 8, 7, 19, 15, 13, 12, 11, 8, 20, 15, 12, 10, 8, 7, 23, 19, 16, 15, 12, 10, 27, 24, 18, 16, 14, 10, 19, 15, 13, 10, 5, 3, 23, 22, 22, 21, 20, 20, 16, 14, 9, 9, 7, 4, 16, 15, 12, 11, 10, 7, 5, 5, 5, 5, 5, 5, 24, 23, 22, 21, 20, 19, 25, 24, 22, 21, 19, 18, 27, 25, 22, 20, 15, 15, 17, 15, 15, 12, 11, 11, 10, 10, 9, 7, 7, 6, 23, 18, 17, 14, 11, 10, 25, 22, 18, 17, 13, 8, 23, 21, 18, 14, 12, 10, 16, 15, 15, 15, 14, 14, 18, 17, 16, 14, 13, 13, 20, 17, 14, 9, 5, 3, 25, 24, 22, 22, 19, 19, 24, 18, 15, 14, 8, 5, 19, 16, 15, 12, 12, 10, 15, 11, 9, 6, 4, 4, 13, 12, 12, 10, 8, 6, 10, 9, 8, 7, 4, 3, 25, 21, 17, 13, 13, 10, 29, 29, 28, 27, 26, 26, 22, 17, 15, 14, 11, 6, 10, 7, 7, 5, 4, 4, 17, 16, 12, 8, 6, 4, 27, 24, 23, 21, 15, 12, 23, 20, 16, 15, 9, 8, 24, 19, 18, 12, 12, 9, 22, 20, 16, 10, 9, 5, 10, 10, 8, 7, 4, 3, 28, 26, 23, 23, 21, 20, 24, 24, 24, 24, 23, 23, 28, 28, 28, 28, 28, 28, 12, 10, 9, 8, 7, 4, 24, 22, 21, 20, 16, 15, 22, 20, 19, 19, 17, 14, 14, 12, 12, 10, 9, 8, 12, 10, 9, 7, 6, 4, 28, 27, 26, 26, 25, 25, 22, 21, 15, 15, 12, 6
 |15, 13, 10, 8, 5, 4, 26, 24, 24, 19, 18, 16, 28, 24, 20, 20, 16, 12, 24, 20, 15, 13, 7, 7, 13, 12, 12, 11, 10, 10, 19, 17, 17, 15, 14, 13, 25, 23, 19, 17, 15, 12, 18, 14, 11, 9, 6, 4, 29, 28, 28, 28, 27, 27, 22, 19, 18, 18, 16, 15, 16, 14, 14, 13, 12, 11, 26, 23, 21, 19, 16, 16, 30, 28, 27, 27, 25, 25, 21, 19, 19, 19, 17, 17, 30, 27, 25, 22, 21, 20, 21, 20, 16, 14, 13, 11, 28, 25, 20, 17, 10, 7, 24, 18, 14, 12, 7, 1, 21, 19, 17, 13, 12, 9, 22, 21, 15, 10, 7, 4, 19, 19, 17, 15, 15, 13, 8, 8, 8, 8, 8, 8, 17, 17, 17, 17, 17, 17, 24, 20, 19, 16, 14, 13, 5, 5, 4, 3, 2, 2, 23, 20, 16, 12, 9, 6, 23, 17, 17, 11, 7, 7, 22, 21, 21, 20, 19, 19, 10, 8, 8, 6, 4, 3, 16, 15, 14, 13, 13, 12, 19, 16, 13, 12, 8, 5, 19, 17, 13, 8, 7, 3, 21, 18, 15, 9, 6, 3, 25, 21, 16, 15, 12, 6, 17, 17, 17, 16, 16, 16, 26, 22, 18, 13, 10, 9, 25, 22, 17, 16, 14, 11, 23, 21, 21, 20, 19, 18, 22, 22, 22, 22, 22, 22, 15, 12, 11, 10, 8, 6, 23, 21, 16, 13, 11, 5, 20, 20, 17, 15, 12, 12, 21, 15, 12, 12, 7, 5, 12, 12, 11, 10, 9, 8, 23, 21, 19, 16, 15, 13, 15, 15, 14, 13, 11, 9, 25, 24, 22, 19, 15, 13, 5, 4, 3, 3, 2, 2, 29, 21, 19, 16, 12, 7, 18, 15, 14, 11, 9, 8, 10, 9, 8, 7, 5, 4, 17, 16, 13, 10, 4, 4, 6, 5, 4, 3, 3, 2, 24, 23, 21, 18, 17, 15, 6, 6, 6, 6, 6, 6, 26, 24, 24, 24, 22, 22, 24, 18, 15, 10, 6, 1, 25, 21, 17, 14, 8, 7, 12, 10, 9, 8, 6, 3, 20, 20, 19, 19, 19, 18, 14, 13, 13, 12, 12, 11, 18, 17, 16, 16, 14, 13, 23, 22, 22, 21, 20, 20, 13, 13, 13, 13, 12, 12, 16, 11, 11, 8, 5, 2, 24, 20, 16, 13, 11, 4, 25, 23, 23, 22, 20, 18, 11, 10, 9, 9, 7, 7, 12, 10, 9, 9, 6, 6, 21, 17, 15, 14, 11, 9, 17, 14, 13, 11, 11, 10, 17, 17, 16, 16, 15, 15, 17, 15, 14, 12, 8, 7, 26, 21, 19, 17, 14, 13, 29, 28, 28, 28, 28, 28, 24, 22, 22, 21, 19, 16, 8, 7, 6, 6, 4, 3, 15, 14, 13, 13, 11, 10, 29, 29, 29, 29, 28, 28, 21, 20, 15, 12, 9, 8, 17, 14, 13, 12, 11, 9, 26, 24, 22, 20, 20, 17, 1, 1, 1, 1, 1, 1, 23, 20, 15, 12, 11, 7, 20, 18, 14, 13, 10, 8, 27, 24, 16, 16, 10, 7, 26, 23, 17, 15, 10, 2, 2, 2, 2, 2, 2, 2, 29, 29, 29, 29, 29, 29, 16, 16, 13, 11, 7, 4, 16, 14, 13, 12, 10, 9, 25, 21, 16, 14, 10, 9, 24, 23, 22, 22, 21, 19, 23, 23, 22, 19, 18, 17, 9, 8, 8, 7, 7, 7, 20, 19, 16, 15, 13, 12, 29, 29, 27, 27, 26, 25, 19, 15, 12, 12, 9, 6, 4, 4, 4, 4, 3, 3, 18, 17, 15, 15, 14, 13
 |16, 14, 14, 13, 11, 10, 7, 6, 6, 6, 5, 5, 18, 17, 14, 12, 9, 6, 29, 29, 29, 29, 29, 29, 5, 5, 5, 4, 4, 4, 20, 18, 14, 12, 10, 9, 15, 14, 13, 13, 12, 12, 15, 14, 10, 8, 6, 4, 10, 10, 9, 9, 8, 7, 4, 4, 4, 4, 4, 4, 17, 16, 13, 11, 11, 9, 24, 23, 22, 20, 18, 17, 24, 22, 20, 20, 19, 18, 29, 23, 18, 18, 14, 8, 29, 26, 25, 24, 24, 22, 19, 13, 12, 9, 7, 3, 14, 13, 13, 12, 12, 11, 26, 24, 18, 18, 14, 9, 17, 15, 11, 7, 3, 3, 28, 23, 19, 17, 10, 10, 19, 16, 13, 9, 7, 2, 22, 21, 20, 16, 16, 14, 11, 9, 8, 7, 4, 2, 25, 19, 19, 15, 12, 10, 19, 18, 18, 17, 16, 16, 23, 22, 20, 15, 14, 11, 22, 18, 15, 13, 8, 6, 8, 6, 6, 4, 4, 3, 6, 6, 5, 4, 2, 1, 27, 21, 17, 14, 12, 8, 20, 19, 19, 18, 17, 17, 7, 7, 5, 4, 3, 3, 27, 25, 23, 22, 22, 21, 27, 22, 18, 14, 11, 4, 12, 11, 11, 11, 11, 11, 24, 20, 15, 11, 8, 8, 13, 10, 9, 5, 5, 2, 15, 14, 12, 12, 10, 10, 15, 12, 10, 10, 8, 5, 24, 19, 15, 12, 7, 4, 20, 19, 19, 19, 18, 18, 6, 6, 6, 6, 6, 6, 19, 19, 19, 19, 18, 18, 15, 15, 13, 9, 8, 7, 26, 23, 21, 16, 14, 13, 24, 21, 20, 20, 18, 16, 26, 18, 16, 9, 5, 4, 10, 10, 10, 9, 9, 9, 25, 25, 24, 21, 19, 19, 9, 9, 6, 4, 2, 2, 26, 26, 22, 21, 19, 18, 17, 16, 14, 14, 13, 12, 23, 21, 19, 16, 14, 12, 11, 11, 11, 11, 11, 11, 22, 22, 22, 22, 22, 22, 10, 9, 7, 6, 5, 3, 16, 14, 13, 13, 11, 9, 24, 23, 23, 22, 20, 20, 28, 23, 22, 17, 13, 8, 17, 13, 10, 9, 5, 2, 5, 4, 4, 3, 2, 2, 17, 17, 16, 14, 11, 10, 28, 26, 25, 24, 23, 23, 28, 22, 19, 17, 10, 10, 27, 23, 19, 18, 13, 10, 21, 20, 17, 12, 10, 7, 13, 13, 13, 12, 12, 11, 10, 10, 10, 10, 10, 10, 17, 17, 15, 10, 8, 7, 29, 26, 24, 22, 19, 19, 24, 23, 23, 23, 23, 23, 18, 18, 16, 15, 15, 13, 4, 3, 3, 3, 2, 1, 9, 9, 9, 8, 8, 7, 18, 16, 16, 16, 15, 14, 27, 22, 18, 11, 6, 2, 25, 25, 24, 22, 22, 21, 26, 22, 21, 17, 15, 15, 25, 22, 21, 17, 16, 13, 5, 4, 3, 3, 3, 2, 20, 18, 18, 18, 16, 16, 25, 25, 22, 21, 18, 17, 29, 19, 19, 10, 8, 3, 30, 29, 27, 26, 25, 25, 14, 11, 11, 7, 7, 4, 29, 25, 22, 19, 17, 16, 27, 27, 27, 27, 27, 27, 30, 29, 29, 28, 28, 27, 22, 21, 18, 15, 10, 9, 10, 9, 9, 7, 7, 6, 23, 23, 23, 22, 22, 21, 28, 27, 27, 26, 26, 26, 12, 12, 9, 7, 6, 5, 7, 6, 6, 6, 6, 6, 24, 21, 18, 12, 11, 4, 22, 21, 20, 20, 18, 17, 20, 20, 16, 11, 11, 7, 7, 6, 6, 5, 5, 5, 16, 15, 13, 12, 8, 7, 19, 18, 16, 15, 11, 10
 |25, 20, 16, 13, 8, 7, 28, 26, 23, 20, 19, 17, 26, 22, 14, 13, 9, 3, 20, 18, 17, 17, 16, 14, 30, 22, 19, 15, 14, 10, 17, 15, 15, 14, 10, 9, 25, 20, 17, 16, 12, 6, 20, 18, 12, 11, 5, 4, 9, 7, 6, 6, 4, 4, 23, 22, 21, 19, 15, 13, 22, 21, 20, 20, 19, 17, 20, 19, 15, 13, 10, 8, 20, 19, 17, 12, 10, 8, 28, 24, 23, 20, 15, 13, 19, 17, 15, 14, 11, 11, 18, 14, 11, 8, 6, 4, 27, 27, 27, 27, 27, 27, 5, 4, 4, 4, 4, 4, 11, 11, 9, 8, 8, 7, 13, 10, 9, 8, 5, 3, 19, 18, 18, 16, 15, 15, 28, 25, 25, 23, 20, 17, 17, 13, 11, 9, 8, 6, 17, 15, 14, 13, 13, 12, 21, 19, 18, 18, 16, 16, 20, 18, 18, 16, 14, 14, 19, 18, 18, 17, 14, 14, 17, 15, 12, 8, 6, 4, 9, 9, 9, 8, 7, 7, 29, 26, 22, 20, 20, 17, 22, 19, 19, 14, 9, 6, 13, 11, 9, 7, 6, 5, 24, 24, 24, 24, 24, 24, 28, 23, 22, 17, 13, 13, 28, 27, 26, 26, 24, 24, 12, 12, 10, 10, 8, 6, 12, 10, 10, 9, 7, 7, 24, 18, 18, 14, 11, 9, 21, 21, 20, 19, 17, 17, 24, 20, 16, 10, 6, 1, 29, 27, 25, 23, 23, 21, 25, 22, 16, 9, 9, 3, 20, 18, 18, 13, 13, 10, 20, 17, 14, 12, 9, 4, 29, 29, 29, 29, 29, 29, 25, 25, 25, 24, 24, 23, 23, 23, 23, 23, 23, 23, 13, 12, 11, 11, 9, 9, 20, 17, 13, 11, 4, 1, 25, 24, 21, 17, 13, 6, 12, 11, 10, 6, 5, 2, 27, 23, 19, 18, 14, 9, 14, 14, 14, 14, 14, 14, 28, 26, 26, 26, 25, 24, 5, 4, 4, 4, 4, 4, 20, 16, 15, 12, 6, 3, 28, 27, 27, 27, 26, 26, 21, 20, 20, 19, 19, 19, 16, 15, 15, 15, 15, 15, 10, 10, 10, 10, 10, 10, 19, 18, 17, 16, 14, 14, 18, 15, 14, 10, 9, 6, 22, 19, 18, 17, 15, 11, 18, 17, 15, 14, 10, 9, 27, 21, 16, 15, 11, 6, 12, 11, 10, 10, 8, 8, 23, 22, 22, 21, 19, 19, 20, 17, 14, 13, 12, 9, 23, 23, 16, 13, 10, 5, 20, 18, 14, 13, 10, 9, 25, 21, 14, 11, 7, 3, 23, 23, 22, 20, 20, 18, 23, 22, 20, 19, 18, 18, 18, 16, 14, 11, 9, 9, 27, 26, 25, 25, 24, 23, 24, 19, 18, 15, 13, 7, 26, 24, 21, 19, 15, 14, 27, 26, 25, 24, 24, 23, 25, 25, 22, 20, 18, 17, 30, 28, 26, 25, 23, 20, 7, 7, 6, 6, 5, 4, 10, 8, 7, 5, 2, 1, 27, 26, 26, 26, 26, 26, 23, 21, 19, 17, 14, 11, 25, 24, 21, 21, 18, 16, 22, 20, 20, 19, 18, 18, 18, 18, 18, 18, 18, 18, 10, 10, 9, 9, 8, 8, 28, 28, 26, 23, 23, 21, 10, 10, 9, 8, 7, 7, 27, 26, 26, 26, 26, 26, 27, 22, 18, 14, 11, 11, 11, 10, 10, 10, 9, 9, 21, 16, 14, 12, 9, 5, 26, 25, 25, 23, 22, 22, 15, 15, 13, 12, 12, 10, 16, 12, 10, 8, 6, 5, 17, 13, 12, 10, 5, 4, 23, 20, 17, 12, 12, 8, 30, 28, 28, 27, 26, 26|];